p wcnf 125 188 189 
1 -32 116 0 
1 117 -75 0 
1 22 -117 0 
1 81 -26 0 
1 20 -111 0 
1 111 -42 0 
1 -15 -71 0 
1 9 -68 0 
1 4 -59 0 
1 -25 -58 0 
1 100 -40 0 
1 -89 120 0 
1 102 -11 0 
1 -109 100 0 
1 -34 80 0 
1 -6 -85 0 
1 121 13 0 
1 -45 8 0 
1 -83 18 0 
1 87 -38 0 
1 22 45 0 
1 58 44 0 
1 32 17 0 
1 40 94 0 
1 -108 57 0 
1 1 -81 0 
1 50 95 0 
1 -120 79 0 
1 -26 93 0 
1 22 -104 0 
1 33 95 0 
1 -60 107 0 
1 -102 -48 0 
1 -72 -92 0 
1 54 -99 0 
1 72 32 0 
1 66 -85 0 
1 -95 53 0 
1 -40 -63 0 
1 -82 -31 0 
1 63 -122 0 
1 -38 -121 0 
1 -51 -34 0 
1 -16 117 0 
1 104 -88 0 
1 66 -98 0 
1 34 90 0 
1 86 47 0 
1 56 -79 0 
1 59 75 0 
1 -73 36 0 
1 -57 87 0 
1 39 -88 0 
1 -125 -93 0 
1 -5 122 0 
1 77 -9 0 
1 21 -85 0 
1 -101 -49 0 
1 73 -62 0 
1 -101 104 0 
1 120 45 0 
1 -91 93 0 
1 98 -91 0 
1 46 -1 0 
1 58 -95 0 
1 -37 56 0 
1 117 46 0 
1 -112 80 0 
1 -21 64 0 
1 -80 44 0 
1 123 -16 0 
1 -78 34 0 
1 -76 -5 0 
1 -111 -37 0 
1 -44 84 0 
1 43 -84 0 
1 90 44 0 
1 -24 -50 0 
1 28 -120 0 
1 -32 5 0 
1 -24 -19 0 
1 -84 -33 0 
1 -75 87 0 
1 48 -28 0 
1 -18 -114 0 
1 -112 -59 0 
1 -71 -88 0 
1 56 -18 0 
1 87 125 0 
1 -90 -103 0 
1 -84 75 0 
1 31 -124 0 
1 103 -41 0 
1 122 -113 0 
1 -26 2 0 
1 21 -109 0 
1 -2 -97 0 
1 -57 86 0 
1 -57 96 0 
1 3 73 0 
1 -103 22 0 
1 35 14 0 
1 -58 61 0 
1 -4 84 0 
1 -100 43 0 
1 -123 -103 0 
1 49 -65 0 
1 -60 -90 0 
1 -121 -113 0 
1 -34 72 0 
1 -40 108 0 
1 -105 5 0 
1 111 71 0 
1 -33 -81 0 
1 26 -57 0 
1 -29 43 0 
1 -92 84 0 
1 60 -85 0 
1 97 -93 0 
1 24 7 0 
1 -107 95 0 
1 -56 72 0 
1 -63 -11 0 
1 -114 44 0 
1 -1 -13 0 
1 -63 36 0 
1 121 -73 0 
1 -77 28 0 
1 -53 -112 0 
1 99 -71 0 
1 18 -113 0 
1 22 -71 0 
1 -90 23 0 
1 -79 9 0 
1 -59 5 0 
1 -17 -123 0 
1 62 43 0 
1 89 -106 0 
1 -125 21 0 
1 -97 -103 0 
1 -94 61 0 
1 57 -48 0 
1 104 -106 0 
1 -49 -42 0 
1 -102 60 0 
1 103 116 0 
1 124 -20 0 
1 -58 -57 0 
1 9 35 0 
1 106 -62 0 
1 -34 -41 0 
1 -50 99 0 
1 77 -73 0 
1 76 17 0 
1 95 -40 0 
1 -36 29 0 
1 105 -44 0 
1 -25 -69 0 
1 -24 5 0 
1 -72 4 0 
1 34 -114 0 
1 -54 -28 0 
1 22 101 0 
1 -51 82 0 
1 -49 -72 0 
1 -1 49 0 
1 -20 -69 0 
1 -123 14 0 
1 -76 101 0 
1 -88 -31 0 
1 -104 -102 0 
1 -113 -49 0 
1 -120 113 0 
1 14 123 0 
1 -67 -86 0 
1 46 115 0 
1 -9 -61 0 
1 58 -9 0 
1 16 -56 0 
1 67 -47 0 
1 -109 42 0 
1 70 98 0 
1 95 47 0 
1 61 -58 0 
1 -99 58 0 
1 -73 32 0 
1 31 113 0 
1 -44 -6 0 
